200
150
100
100
100
99
99
99
98
98
98
97
96
96
96
95
95
95
94
93
92
91
91
91
90
90
90
89
87
87
86
86
86
84
84
83
83
82
82
82
80
80
80
79
78
77
77
77
77
77
75
74
73
73
73
73
72
71
71
71
70
69
68
68
68
68
67
65
65
65
65
65
65
64
63
63
62
62
62
61
60
59
58
58
57
57
54
54
53
53
52
52
52
52
51
51
50
50
49
49
49
48
48
47
46
45
44
44
44
43
42
42
41
40
39
39
39
39
39
38
37
37
37
37
37
37
37
37
36
36
35
35
35
35
34
34
33
33
32
32
31
31
29
29
29
28
27
26
26
25
25
24
23
21
21
21
20
20
18
18
17
17
17
16
16
16
16
15
15
14
13
13
13
13
13
13
13
12
11
9
8
8
7
6
6
6
5
5
5
5
4
4
4
4
4
3
3
2
2
2
1
1
